benchmarks_vrp/CMT12/fixed_c/CMT12_5.vrp
NAME: CMT12_5
TYPE: CVRP
COMMENT: 819.56 - Cluster Nr.5
DIMENSION: 13
CAPACITY: 200
EDGE_WEIGHT_TYPE: EUC_2D
NODE_COORD_TYPE: TWOD_COORDS
NODE_COORD_SECTION: 
4 38 68
6 35 66
8 38 70
11 42 66
3 45 70
7 42 68
10 45 65
12 42 65
9 40 66
13 35 69
1 40 69
2 45 68
5 40 50
DEPOT_SECTION: 
5
-1
DEMAND_SECTION: 
10 20
11 10
7 10
5 0
8 10
13 10
3 30
2 10
9 20
4 20
1 20
12 10
6 10
EOF
