benchmarks_vrp/CMT12/fixed_c/CMT12_5.tour
NAME: CMT12_5 solution
TYPE: TOUR
TOUR_SECTION:
5 6 13 8 4 1 7 3 2 10 11 9 12 -1
-1
EOF